(set-logic QF_NRA)
(declare-fun y1 () Real)
(declare-fun y2 () Real)
(declare-fun y3 () Real)
(declare-fun y4 () Real)
(declare-fun y5 () Real)
(declare-fun y6 () Real)
(assert
(and
(and (<= 2 y1) (<= y1 (/ 218 100)))(and (<= 2 y2) (<= y2 (/ 218 100)))(and (<= 2 y3) (<= y3 (/ 218 100)))(and (<= 2 y4) (<= y4 (/ 225 100)))(and (<= 2 y5) (<= y5 (/ 225 100)))(and (<= 2 y6) (<= y6 (/ 225 100)))(not (> (+ (+ (/ (/ 314159265 100000000) 2) (ite (< (ite (<= 0 (- (+ (- (* (- (* y2 y2)) (* y3 y3)) (* (* y1 y1) (* y4 y4))) (+ (* (* y2 y2) (* y5 y5)) (+ (- (* (* y3 y3) (* y6 y6)) (* (* y5 y5) (* y6 y6))) (* (* y1 y1) (+ (- (* y1 y1)) (+ (* y2 y2) (+ (- (* y3 y3) (* y4 y4)) (+ (* y5 y5) (* y6 y6))))))))))) (- (+ (- (* (- (* y2 y2)) (* y3 y3)) (* (* y1 y1) (* y4 y4))) (+ (* (* y2 y2) (* y5 y5)) (+ (- (* (* y3 y3) (* y6 y6)) (* (* y5 y5) (* y6 y6))) (* (* y1 y1) (+ (- (* y1 y1)) (+ (* y2 y2) (+ (- (* y3 y3) (* y4 y4)) (+ (* y5 y5) (* y6 y6)))))))))) (- (- (+ (- (* (- (* y2 y2)) (* y3 y3)) (* (* y1 y1) (* y4 y4))) (+ (* (* y2 y2) (* y5 y5)) (+ (- (* (* y3 y3) (* y6 y6)) (* (* y5 y5) (* y6 y6))) (* (* y1 y1) (+ (- (* y1 y1)) (+ (* y2 y2) (+ (- (* y3 y3) (* y4 y4)) (+ (* y5 y5) (* y6 y6)))))))))))) (^ (* 4 (* (* y1 y1) (+ (* (* y1 y1) (* (* y4 y4) (+ (- (* y1 y1)) (+ (* y2 y2) (+ (- (* y3 y3) (* y4 y4)) (+ (* y5 y5) (* y6 y6))))))) (+ (* (* y2 y2) (* (* y5 y5) (+ (- (* y1 y1) (* y2 y2)) (+ (* y3 y3) (+ (- (* y4 y4) (* y5 y5)) (* y6 y6)))))) (- (- (- (- (* (* y3 y3) (* (* y6 y6) (+ (* y1 y1) (+ (- (* y2 y2) (* y3 y3)) (+ (* y4 y4) (- (* y5 y5) (* y6 y6))))))) (* (* y2 y2) (* (* y3 y3) (* y4 y4)))) (* (* y1 y1) (* (* y3 y3) (* y5 y5)))) (* (* y1 y1) (* (* y2 y2) (* y6 y6)))) (* (* y4 y4) (* (* y5 y5) (* y6 y6)))))))) (/ 5 10))) (arctan (/ (- (+ (- (* (- (* y2 y2)) (* y3 y3)) (* (* y1 y1) (* y4 y4))) (+ (* (* y2 y2) (* y5 y5)) (+ (- (* (* y3 y3) (* y6 y6)) (* (* y5 y5) (* y6 y6))) (* (* y1 y1) (+ (- (* y1 y1)) (+ (* y2 y2) (+ (- (* y3 y3) (* y4 y4)) (+ (* y5 y5) (* y6 y6)))))))))) (^ (* 4 (* (* y1 y1) (+ (* (* y1 y1) (* (* y4 y4) (+ (- (* y1 y1)) (+ (* y2 y2) (+ (- (* y3 y3) (* y4 y4)) (+ (* y5 y5) (* y6 y6))))))) (+ (* (* y2 y2) (* (* y5 y5) (+ (- (* y1 y1) (* y2 y2)) (+ (* y3 y3) (+ (- (* y4 y4) (* y5 y5)) (* y6 y6)))))) (- (- (- (- (* (* y3 y3) (* (* y6 y6) (+ (* y1 y1) (+ (- (* y2 y2) (* y3 y3)) (+ (* y4 y4) (- (* y5 y5) (* y6 y6))))))) (* (* y2 y2) (* (* y3 y3) (* y4 y4)))) (* (* y1 y1) (* (* y3 y3) (* y5 y5)))) (* (* y1 y1) (* (* y2 y2) (* y6 y6)))) (* (* y4 y4) (* (* y5 y5) (* y6 y6)))))))) (/ 5 10)))) (ite (< 0 (- (+ (- (* (- (* y2 y2)) (* y3 y3)) (* (* y1 y1) (* y4 y4))) (+ (* (* y2 y2) (* y5 y5)) (+ (- (* (* y3 y3) (* y6 y6)) (* (* y5 y5) (* y6 y6))) (* (* y1 y1) (+ (- (* y1 y1)) (+ (* y2 y2) (+ (- (* y3 y3) (* y4 y4)) (+ (* y5 y5) (* y6 y6))))))))))) (- (/ (/ 314159265 100000000) 2) (arctan (/ (^ (* 4 (* (* y1 y1) (+ (* (* y1 y1) (* (* y4 y4) (+ (- (* y1 y1)) (+ (* y2 y2) (+ (- (* y3 y3) (* y4 y4)) (+ (* y5 y5) (* y6 y6))))))) (+ (* (* y2 y2) (* (* y5 y5) (+ (- (* y1 y1) (* y2 y2)) (+ (* y3 y3) (+ (- (* y4 y4) (* y5 y5)) (* y6 y6)))))) (- (- (- (- (* (* y3 y3) (* (* y6 y6) (+ (* y1 y1) (+ (- (* y2 y2) (* y3 y3)) (+ (* y4 y4) (- (* y5 y5) (* y6 y6))))))) (* (* y2 y2) (* (* y3 y3) (* y4 y4)))) (* (* y1 y1) (* (* y3 y3) (* y5 y5)))) (* (* y1 y1) (* (* y2 y2) (* y6 y6)))) (* (* y4 y4) (* (* y5 y5) (* y6 y6)))))))) (/ 5 10)) (- (+ (- (* (- (* y2 y2)) (* y3 y3)) (* (* y1 y1) (* y4 y4))) (+ (* (* y2 y2) (* y5 y5)) (+ (- (* (* y3 y3) (* y6 y6)) (* (* y5 y5) (* y6 y6))) (* (* y1 y1) (+ (- (* y1 y1)) (+ (* y2 y2) (+ (- (* y3 y3) (* y4 y4)) (+ (* y5 y5) (* y6 y6))))))))))))) (ite (< (- (+ (- (* (- (* y2 y2)) (* y3 y3)) (* (* y1 y1) (* y4 y4))) (+ (* (* y2 y2) (* y5 y5)) (+ (- (* (* y3 y3) (* y6 y6)) (* (* y5 y5) (* y6 y6))) (* (* y1 y1) (+ (- (* y1 y1)) (+ (* y2 y2) (+ (- (* y3 y3) (* y4 y4)) (+ (* y5 y5) (* y6 y6)))))))))) 0) (- (- (/ (/ 314159265 100000000) 2)) (arctan (/ (^ (* 4 (* (* y1 y1) (+ (* (* y1 y1) (* (* y4 y4) (+ (- (* y1 y1)) (+ (* y2 y2) (+ (- (* y3 y3) (* y4 y4)) (+ (* y5 y5) (* y6 y6))))))) (+ (* (* y2 y2) (* (* y5 y5) (+ (- (* y1 y1) (* y2 y2)) (+ (* y3 y3) (+ (- (* y4 y4) (* y5 y5)) (* y6 y6)))))) (- (- (- (- (* (* y3 y3) (* (* y6 y6) (+ (* y1 y1) (+ (- (* y2 y2) (* y3 y3)) (+ (* y4 y4) (- (* y5 y5) (* y6 y6))))))) (* (* y2 y2) (* (* y3 y3) (* y4 y4)))) (* (* y1 y1) (* (* y3 y3) (* y5 y5)))) (* (* y1 y1) (* (* y2 y2) (* y6 y6)))) (* (* y4 y4) (* (* y5 y5) (* y6 y6)))))))) (/ 5 10)) (- (+ (- (* (- (* y2 y2)) (* y3 y3)) (* (* y1 y1) (* y4 y4))) (+ (* (* y2 y2) (* y5 y5)) (+ (- (* (* y3 y3) (* y6 y6)) (* (* y5 y5) (* y6 y6))) (* (* y1 y1) (+ (- (* y1 y1)) (+ (* y2 y2) (+ (- (* y3 y3) (* y4 y4)) (+ (* y5 y5) (* y6 y6))))))))))))) (/ 314159265 100000000))))) (/ 0012 10000)) (+ (/ 108627 100000) (+ (* (/ 159149 1000000) (+ (- 2) y1)) (+ (* (- (/ 198496 1000000)) (+ (- (/ 21 10)) y2)) (+ (* (- (/ 199306 1000000)) (+ (- (/ 21 10)) y3)) (+ (* (/ 590083 1000000) (+ (- 2) y4)) (+ (* (- (/ 0888111 10000000)) (+ (- (/ 225 100)) y5)) (* (- (/ 0881846 10000000)) (+ (- (/ 225 100)) y6)))))))))))
)
(check-sat)
(exit)
